100
18 4
11 0
15 1
31 4
18 0
40 4
12 3
6 4
16 2
15 0
1 3
25 4
0 0
27 3
43 4
33 0
36 4
27 4
15 4
25 3
10 0
5 0
23 3
0 4
28 2
31 3
20 2
29 3
1 0
11 2
31 0
4 0
33 4
18 2
14 2
24 4
39 0
18 3
18 1
34 4
15 2
28 1
24 1
42 4
21 0
20 1
11 4
29 4
23 4
19 0
6 1
12 0
30 3
14 4
37 4
4 3
11 3
32 0
13 2
14 0
24 3
15 3
28 4
16 3
9 1
9 0
13 4
37 3
14 3
34 2
7 4
16 4
40 0
39 3
42 1
2 0
30 4
20 0
14 1
28 3
43 0
19 1
13 0
37 0
33 2
12 1
21 1
9 4
3 0
34 3
28 0
6 0
3 4
22 0
43 3
10 3
29 0
41 0
7 0
22 1

